WARNING: for repeatability, setting FPU to use double precision
============================[ Problem Statistics ]=============================
|                                                                             |
|  Number of variables:           883                                         |
|  Number of clauses:            4828                                         |
|  Parse time:                   0.00 s                                       |
|                                                                             |
============================[ Search Statistics ]==============================
| Conflicts |          ORIGINAL         |          LEARNT          | Progress |
|           |    Vars  Clauses Literals |    Limit  Clauses Lit/Cl |          |
===============================================================================
===============================================================================
restarts              : 1
conflicts             : 56             (inf /sec)
decisions             : 528            (0.00 % random) (inf /sec)
propagations          : 5045           (inf /sec)
conflict literals     : 231            (16.61 % deleted)
Memory used           : 6.00 MB
CPU time              : 0 s

UNSATISFIABLE
